 200 26 
 92 68 45 55 34 34 52 91 83 74 100 63 
 97 72 78 96 88 49 60 97 62 55 74 74 
 50 8 
 12 
 2 6 7 14 15 17 18 19 21 23 24 26 
 17 
 1 2 5 6 7 8 9 10 12 13 14 17 
 19 20 22 24 26 
 20 
 1 2 4 5 6 7 8 9 10 11 12 14 
 15 16 18 20 21 22 24 25 
 12 
 1 2 3 5 10 13 16 20 22 24 25 26 
 18 
 1 2 4 6 7 8 9 10 12 13 16 17 
 18 20 22 24 25 26 
 26 
 1 2 3 4 5 6 7 8 9 10 11 12 
 13 14 15 16 17 18 19 20 21 22 23 24 
 25 26 
 26 
 1 2 3 4 5 6 7 8 9 10 11 12 
 13 14 15 16 17 18 19 20 21 22 23 24 
 25 26 
 23 
 2 4 5 6 7 8 9 10 11 12 13 14 
 15 16 17 18 19 21 22 23 24 25 26 
 12 
 2 6 7 8 10 12 16 18 19 22 24 26 
 16 
 3 4 5 6 7 8 10 13 14 18 19 20 
 21 22 23 25 
 15 
 3 5 9 10 11 12 15 18 20 21 22 23 
 24 25 26 
 11 
 1 2 4 7 10 11 15 16 18 21 26 
 20 
 2 3 4 6 7 9 10 11 13 14 15 16 
 17 18 20 21 22 23 25 26 
 16 
 2 3 4 5 6 7 9 10 11 12 15 18 
 23 24 25 26 
 5 
 2 7 12 14 23 
 14 
 2 3 4 7 8 12 13 14 16 18 19 23 
 24 26 
 9 
 3 5 7 10 15 18 19 21 26 
 23 
 2 3 4 5 6 7 8 9 10 11 12 13 
 15 17 18 19 20 21 22 23 24 25 26 
 6 
 6 14 15 17 22 25 
 15 
 2 4 5 6 8 12 14 15 16 17 18 22 
 23 25 26 
 7 
 4 7 10 11 13 22 23 
 3 
 1 13 21 
 13 
 1 4 7 9 10 11 16 17 18 20 22 24 
 26 
 4 
 8 17 21 22 
 15 
 1 2 3 4 6 7 8 9 13 14 16 17 
 18 22 25 
 6 
 5 9 18 19 21 26 
 18 
 2 3 4 5 6 7 8 10 12 15 16 18 
 19 20 21 23 24 26 
 26 
 1 2 3 4 5 6 7 8 9 10 11 12 
 13 14 15 16 17 18 19 20 21 22 23 24 
 25 26 
 24 
 1 3 4 5 6 7 8 9 10 11 12 13 
 14 15 16 17 18 19 20 21 23 24 25 26 
 7 
 4 8 16 18 19 24 25 
 11 
 1 5 7 11 13 17 18 20 22 23 24 
 3 
 1 18 24 
 16 
 1 2 3 5 10 11 15 16 17 18 19 20 
 21 23 24 25 
 25 
 1 2 3 4 5 6 7 8 9 10 11 12 
 13 15 16 17 18 19 20 21 22 23 24 25 
 26 
 3 
 3 15 18 
 12 
 3 4 8 10 11 12 14 16 20 21 24 26 
 9 
 6 7 11 13 14 17 19 24 25 
 5 
 8 10 14 16 20 
 12 
 3 5 6 8 10 14 18 19 20 21 22 23 
 4 
 1 2 4 5 
 6 
 4 7 8 13 21 25 
 2 
 22 26 
 19 
 1 3 4 5 6 7 10 13 14 15 16 17 
 18 20 21 22 24 25 26 
 21 
 1 3 4 5 6 7 8 10 11 12 13 14 
 15 16 17 18 20 21 22 24 26 
 22 
 2 3 4 5 6 7 8 9 10 11 12 13 
 14 15 16 17 18 19 20 21 24 25 
 6 
 6 10 15 17 19 24 
 20 
 2 3 4 5 6 7 8 9 10 13 14 15 
 16 18 19 20 23 24 25 26 
 24 
 1 2 3 4 6 7 8 9 10 11 12 13 
 14 15 16 17 18 19 20 21 22 23 24 26 
 9 
 1 2 5 12 15 18 20 21 24 
 11 
 1 4 5 7 11 12 14 19 20 23 26 
 21 
 2 3 5 6 7 8 9 10 11 12 13 15 
 16 18 19 20 21 23 24 25 26 
 20 
 1 2 3 4 5 7 8 9 10 13 14 15 
 16 17 18 20 22 23 24 26 
 2 
 14 26 
 3 
 7 10 14 
 22 
 1 2 4 5 6 7 9 10 11 12 13 14 
 15 16 17 18 20 21 22 23 25 26 
 4 
 1 5 15 18 
 20 
 1 2 3 4 5 8 9 11 12 14 15 16 
 17 18 19 21 23 24 25 26 
 9 
 4 5 12 14 15 19 21 23 26 
 19 
 2 3 5 8 9 10 11 13 14 16 18 19 
 20 21 22 23 24 25 26 
 2 
 16 26 
 11 
 2 4 5 6 7 11 15 19 21 23 24 
 26 
 1 2 3 4 5 6 7 8 9 10 11 12 
 13 14 15 16 17 18 19 20 21 22 23 24 
 25 26 
 26 
 1 2 3 4 5 6 7 8 9 10 11 12 
 13 14 15 16 17 18 19 20 21 22 23 24 
 25 26 
 4 
 8 10 14 21 
 9 
 1 2 5 6 7 9 10 13 16 
 7 
 3 12 13 16 17 23 25 
 12 
 2 4 7 8 10 11 17 18 21 22 24 26 
 18 
 1 2 3 4 5 6 7 8 10 11 13 14 
 18 19 20 21 22 24 
 3 
 1 4 24 
 20 
 1 2 3 4 6 7 8 9 10 11 13 14 
 15 19 20 21 22 23 24 25 
 7 
 7 11 12 14 15 17 24 
 17 
 3 4 5 6 9 12 15 16 17 18 20 21 
 22 23 24 25 26 
 12 
 1 3 5 7 8 9 10 12 14 15 16 18 
 12 
 4 5 6 8 9 13 15 17 19 20 25 26 
 14 
 2 4 5 7 10 11 14 17 18 19 22 23 
 24 25 
 9 
 2 4 5 9 11 14 17 21 25 
 23 
 1 2 3 4 5 6 7 8 9 10 11 13 
 14 15 16 18 19 20 21 22 23 24 25 
 20 
 1 3 4 5 6 7 8 9 10 11 14 15 
 16 17 18 19 21 22 23 24 
 20 
 1 2 4 5 7 8 9 10 12 14 15 16 
 17 18 20 21 22 24 25 26 
 21 
 1 2 3 5 6 8 9 10 11 12 13 14 
 15 16 17 20 22 23 24 25 26 
 2 
 7 22 
 7 
 4 5 9 10 11 17 22 
 17 
 1 2 3 4 5 6 7 8 11 13 15 17 
 21 22 23 24 25 
 4 
 7 12 13 16 
 7 
 3 7 9 15 19 20 25 
 14 
 3 7 8 10 13 14 15 16 17 21 22 23 
 25 26 
 13 
 1 2 3 7 8 10 15 19 22 23 24 25 
 26 
 26 
 1 2 3 4 5 6 7 8 9 10 11 12 
 13 14 15 16 17 18 19 20 21 22 23 24 
 25 26 
 17 
 2 4 5 7 8 10 11 12 13 14 15 16 
 17 20 21 24 25 
 22 
 1 2 3 4 5 6 7 9 11 12 13 15 
 16 17 18 19 20 21 23 24 25 26 
 26 
 1 2 3 4 5 6 7 8 9 10 11 12 
 13 14 15 16 17 18 19 20 21 22 23 24 
 25 26 
 15 
 1 3 4 8 9 10 12 13 14 15 20 21 
 22 24 26 
 19 
 2 3 4 5 7 8 9 10 12 13 15 16 
 17 19 21 22 23 24 25 
 10 
 1 3 4 10 11 12 20 22 24 25 
 10 
 1 3 5 9 10 15 17 20 21 22 
 13 
 1 2 3 4 6 8 9 10 13 14 17 22 
 24 
 7 
 1 2 5 6 7 22 25 
 20 
 1 2 3 6 7 8 9 10 11 12 14 15 
 16 17 18 19 22 23 24 25 
 12 
 2 3 4 7 9 13 15 16 18 20 21 26 
 17 
 1 2 4 8 9 10 11 13 14 15 17 18 
 20 21 22 25 26 
 16 
 4 5 6 7 9 10 11 12 13 15 18 20 
 22 23 24 26 
 23 
 2 3 4 5 6 7 8 9 10 11 13 14 
 15 16 17 18 19 21 22 23 24 25 26 
 15 
 1 4 5 6 7 9 11 15 16 17 18 20 
 21 22 26 
 25 
 1 2 3 4 5 6 7 8 9 10 11 12 
 14 15 16 17 18 19 20 21 22 23 24 25 
 26 
 15 
 1 3 4 5 6 7 10 11 13 15 16 17 
 21 23 24 
 10 
 1 2 3 9 12 14 16 18 19 20 
 17 
 2 3 4 5 6 10 11 12 13 16 17 18 
 19 21 22 25 26 
 13 
 2 4 5 6 7 8 13 15 16 19 21 22 
 26 
 13 
 1 2 3 4 5 6 10 12 15 17 19 22 
 26 
 25 
 1 2 3 4 5 6 7 8 9 10 11 12 
 13 14 15 17 18 19 20 21 22 23 24 25 
 26 
 23 
 1 3 5 6 7 8 9 10 11 12 13 14 
 15 17 18 19 20 21 22 23 24 25 26 
 5 
 1 11 13 17 22 
 6 
 6 7 8 10 11 18 
 25 
 1 2 3 4 5 6 7 8 9 10 11 12 
 13 14 15 16 17 18 19 21 22 23 24 25 
 26 
 13 
 1 2 3 10 11 15 16 17 20 21 22 25 
 26 
 11 
 1 5 7 8 14 18 20 23 24 25 26 
 20 
 2 3 4 5 7 8 9 10 11 12 13 14 
 16 17 18 21 23 24 25 26 
 10 
 2 4 5 7 14 15 16 17 23 25 
 9 
 8 15 17 18 21 23 24 25 26 
 9 
 1 2 7 12 13 16 17 18 20 
 21 
 1 2 3 4 5 6 7 11 12 13 14 15 
 16 17 18 20 22 23 24 25 26 
 6 
 3 5 16 18 20 22 
 22 
 2 3 4 5 6 7 9 11 12 13 15 16 
 17 18 19 20 21 22 23 24 25 26 
 26 
 1 2 3 4 5 6 7 8 9 10 11 12 
 13 14 15 16 17 18 19 20 21 22 23 24 
 25 26 
 4 
 3 6 8 22 
 23 
 1 2 3 4 5 6 7 9 10 11 13 14 
 15 16 17 18 19 20 21 22 24 25 26 
 8 
 1 3 10 13 14 18 20 21 
 25 
 1 2 3 4 5 6 7 8 9 10 11 12 
 13 14 15 16 17 18 19 20 21 22 23 25 
 26 
 18 
 1 2 4 8 9 10 11 12 14 15 16 17 
 19 20 21 22 23 26 
 20 
 1 2 3 4 5 8 9 10 11 12 13 14 
 16 18 19 20 21 24 25 26 
 16 
 1 2 3 4 6 7 8 10 11 15 16 18 
 19 20 22 24 
 23 
 1 2 3 4 5 6 7 9 10 11 12 13 
 14 15 16 18 19 20 21 22 23 25 26 
 25 
 1 2 3 4 5 6 7 8 9 10 11 12 
 14 15 16 17 18 19 20 21 22 23 24 25 
 26 
 21 
 1 2 4 5 7 8 9 10 11 12 13 14 
 15 17 18 19 21 22 23 24 25 
 8 
 1 4 9 12 13 16 17 25 
 22 
 1 2 3 4 5 7 8 9 10 11 12 13 
 14 15 16 17 18 19 21 23 24 25 
 10 
 2 7 11 12 13 18 19 20 25 26 
 20 
 1 2 3 4 5 6 8 9 10 11 13 15 
 17 18 19 20 21 22 23 24 
 16 
 3 5 6 7 8 10 12 13 14 16 18 19 
 21 22 23 26 
 16 
 1 3 4 7 8 9 10 11 12 14 15 16 
 19 21 22 23 
 16 
 2 3 5 6 8 9 10 12 13 14 15 18 
 19 22 23 24 
 17 
 3 6 7 8 10 11 12 13 14 15 16 17 
 18 21 22 23 24 
 11 
 1 5 6 8 9 10 12 14 18 22 26 
 5 
 7 12 15 17 24 
 2 
 8 20 
 4 
 9 12 20 21 
 4 
 2 16 22 23 
 15 
 3 4 6 8 11 13 14 15 16 18 19 20 
 21 22 23 
 23 
 1 2 3 4 5 6 7 8 10 11 12 13 
 14 15 16 17 19 21 22 23 24 25 26 
 19 
 2 5 6 7 8 9 11 12 13 15 16 17 
 18 20 21 22 24 25 26 
 18 
 3 4 5 7 8 9 10 12 13 15 17 18 
 19 22 23 24 25 26 
 8 
 1 3 4 7 15 18 24 25 
 13 
 1 2 3 4 6 7 9 13 17 20 21 22 
 23 
 10 
 5 9 10 11 13 14 15 18 22 26 
 9 
 2 3 4 11 18 19 20 23 25 
 11 
 1 7 8 9 10 12 14 17 18 20 21 
 18 
 1 2 4 5 9 10 11 12 13 16 17 18 
 19 20 21 22 23 25 
 17 
 3 4 6 8 9 10 11 12 13 14 15 17 
 18 20 22 23 25 
 21 
 1 2 3 4 5 7 9 10 11 12 13 14 
 15 16 17 18 19 21 22 23 24 
 7 
 1 2 14 15 21 22 25 
 5 
 4 10 12 24 26 
 9 
 1 2 3 8 11 12 14 22 25 
 15 
 4 5 7 9 11 12 13 14 15 18 19 21 
 23 24 26 
 14 
 2 5 7 10 11 12 15 16 18 19 22 23 
 24 26 
 4 
 14 19 24 26 
 20 
 1 2 3 4 5 6 7 9 11 12 13 16 
 17 18 20 21 22 24 25 26 
 16 
 2 5 6 7 8 10 11 12 14 16 19 20 
 21 23 25 26 
 11 
 2 4 5 7 8 18 19 21 22 24 26 
 24 
 1 2 3 4 5 6 7 8 10 11 12 13 
 14 16 17 18 19 20 21 22 23 24 25 26 
 20 
 1 2 3 5 6 7 8 10 11 13 14 15 
 16 17 18 19 22 24 25 26 
 21 
 1 2 3 4 7 9 10 11 12 13 14 15 
 16 17 18 20 21 22 24 25 26 
 7 
 1 4 9 13 14 23 26 
 8 
 7 8 12 17 19 21 22 23 
 18 
 1 2 4 5 7 8 10 11 12 13 14 15 
 17 19 20 21 23 24 
 21 
 1 2 3 4 5 6 10 12 14 15 16 17 
 18 19 20 21 22 23 24 25 26 
 20 
 1 2 3 4 6 7 8 9 12 13 14 16 
 17 18 19 20 22 23 24 26 
 15 
 1 2 4 6 7 11 13 16 18 19 21 22 
 24 25 26 
 23 
 1 3 5 6 7 8 9 10 11 12 13 14 
 16 17 18 19 20 21 22 23 24 25 26 
 2 
 9 11 
 24 
 1 2 3 4 5 6 7 8 9 11 12 13 
 14 15 16 17 18 19 20 21 22 23 24 25 
 23 
 1 2 4 5 6 7 8 9 10 11 12 13 
 14 16 17 18 19 20 22 23 24 25 26 
 17 
 1 2 3 4 5 6 7 9 10 12 13 14 
 16 18 20 22 25 
 23 
 1 2 4 5 6 7 8 9 10 12 13 14 
 15 16 17 18 19 20 21 22 24 25 26 
 6 
 1 7 11 12 14 18 
 12 
 1 2 4 6 8 9 12 13 18 21 24 26 
 22 
 1 2 6 7 9 10 11 12 13 14 15 16 
 17 18 19 20 21 22 23 24 25 26 
 3 
 2 6 17 
 10 
 2 7 8 10 11 15 19 22 24 26 
 19 
 1 3 4 5 6 7 9 10 11 12 14 15 
 18 19 20 22 24 25 26 
 5 
 2 3 8 18 22 
 11 
 9 11 14 15 16 17 19 21 23 24 25 
 24 
 1 2 3 4 5 6 7 8 9 10 11 12 
 13 14 16 17 18 19 20 21 22 23 25 26 
 15 
 1 4 5 6 8 9 10 12 14 17 20 21 
 22 23 25 
 9 
 1 2 5 6 7 12 19 20 24 
 6 
 7 16 20 24 25 26 
 8 
 6 9 14 18 21 23 25 26 
 11 
 1 3 5 6 8 9 10 11 18 23 24 
 23 
 1 2 3 4 5 6 8 9 11 12 13 14 
 15 16 17 18 19 21 22 23 24 25 26 
 21 
 1 2 3 5 6 7 8 9 10 11 14 15 
 16 18 19 20 21 22 23 25 26 
 24 
 1 2 3 4 5 6 7 8 10 11 12 13 
 14 15 16 17 18 19 20 21 22 24 25 26 
 